31050.0
1 1 1 1 1 1 1 0 1 1 0 1 1 1 1 1 1 0 1 0 1 1 1 1 1 1 1 1 1 1 
18 6 21 27 2 12 15 27 22 28 4 28 13 1 28 18 1 20 22 0 18 16 5 24 23 18 27 14 29 2 6 26 4 16 27 6 20 8 24 16 18 9 6 4 8 26 13 21 14 14 24 16 24 16 8 6 11 9 18 25 29 0 18 8 13 11 5 14 28 25 18 12 6 9 23 23 20 23 8 16 23 0 9 25 29 13 6 5 27 25 28 6 25 25 2 3 11 6 0 28 28 15 25 18 4 0 4 24 22 3 14 4 27 12 12 8 28 25 14 8 26 11 28 6 26 16 2 11 26 0 28 24 25 20 23 9 3 3 28 14 12 22 11 11 25 5 24 15 27 25 24 0 23 0 8 11 2 15 3 13 13 27 23 24 5 27 5 4 3 21 1 20 28 14 26 2 0 20 29 20 5 21 2 6 12 8 28 23 0 21 2 21 6 4 25 12 25 15 23 6 